<number of tasks>
250

<cycle time>
1000

<order strength>
0.595


<task times>
1 21
2 164
3 108
4 252
5 82
6 123
7 204
8 127
9 203
10 49
11 85
12 34
13 121
14 245
15 101
16 253
17 143
18 148
19 262
20 100
21 185
22 174
23 120
24 120
25 169
26 159
27 81
28 147
29 32
30 164
31 32
32 27
33 255
34 116
35 247
36 71
37 328
38 153
39 155
40 93
41 149
42 120
43 132
44 28
45 39
46 93
47 77
48 178
49 128
50 90
51 155
52 66
53 113
54 25
55 147
56 173
57 143
58 141
59 139
60 214
61 349
62 94
63 252
64 56
65 197
66 186
67 265
68 151
69 48
70 189
71 188
72 108
73 34
74 118
75 232
76 206
77 94
78 152
79 53
80 208
81 61
82 117
83 141
84 227
85 57
86 254
87 143
88 63
89 42
90 183
91 188
92 83
93 31
94 133
95 74
96 173
97 26
98 230
99 139
100 184
101 84
102 241
103 93
104 175
105 211
106 145
107 82
108 200
109 120
110 37
111 86
112 218
113 260
114 208
115 152
116 282
117 166
118 88
119 118
120 77
121 179
122 71
123 68
124 104
125 65
126 38
127 30
128 60
129 171
130 181
131 25
132 257
133 199
134 75
135 103
136 75
137 156
138 81
139 83
140 79
141 38
142 210
143 212
144 103
145 253
146 124
147 57
148 69
149 118
150 123
151 197
152 152
153 139
154 25
155 165
156 126
157 118
158 91
159 22
160 77
161 157
162 44
163 158
164 123
165 75
166 51
167 127
168 69
169 275
170 183
171 165
172 182
173 184
174 119
175 78
176 168
177 175
178 37
179 173
180 136
181 139
182 270
183 250
184 128
185 131
186 82
187 66
188 239
189 73
190 86
191 32
192 22
193 86
194 29
195 185
196 79
197 252
198 263
199 106
200 114
201 282
202 166
203 275
204 172
205 230
206 53
207 219
208 231
209 45
210 169
211 108
212 83
213 275
214 291
215 151
216 34
217 142
218 212
219 152
220 73
221 99
222 106
223 169
224 169
225 142
226 229
227 60
228 99
229 170
230 248
231 304
232 22
233 119
234 95
235 219
236 164
237 146
238 185
239 301
240 49
241 73
242 25
243 64
244 203
245 51
246 69
247 96
248 63
249 108
250 144

<precedence relations>
1,18
2,18
3,223
4,221
5,8
5,9
5,11
5,13
5,16
6,7
6,9
6,10
6,12
6,14
6,15
6,17
7,18
8,18
9,18
10,18
11,18
12,18
13,103
14,211
15,120
16,120
17,19
17,20
17,21
17,22
17,23
17,24
17,25
17,26
18,27
18,28
18,29
18,30
18,31
18,32
18,33
18,34
19,64
20,185
21,57
22,123
23,120
24,120
25,221
26,35
26,36
26,45
26,70
27,64
28,37
28,43
28,45
28,73
29,37
29,38
29,71
30,40
30,91
30,92
31,37
31,38
31,39
31,40
31,41
31,46
31,71
32,42
32,44
32,60
33,60
33,64
33,89
34,186
35,211
36,41
36,55
37,57
38,57
39,148
40,186
41,123
42,120
43,221
44,47
44,49
44,53
44,54
44,55
45,46
45,48
45,50
45,51
45,52
45,54
46,64
47,57
48,103
49,148
50,186
51,123
52,55
52,59
52,60
52,61
52,62
53,56
53,63
53,71
54,58
54,59
54,99
55,64
56,185
57,65
57,66
57,67
57,68
57,69
57,70
58,123
59,223
60,120
61,86
61,98
61,104
61,108
61,119
61,120
62,71
62,86
62,123
63,72
63,73
63,95
64,74
64,75
64,76
64,77
64,78
64,79
64,80
64,81
65,108
65,148
66,82
66,86
66,95
67,82
67,83
67,95
68,82
68,83
69,82
69,83
70,123
71,120
72,82
72,83
72,85
73,85
73,99
74,103
75,103
76,84
76,88
77,86
77,104
78,85
78,119
79,148
79,188
80,87
81,91
82,211
83,84
83,89
83,91
84,151
85,185
86,103
87,223
88,90
88,91
88,92
89,90
89,145
90,123
91,96
91,97
91,98
92,93
92,94
92,95
93,103
94,103
95,99
95,100
95,101
96,102
96,146
97,99
97,100
97,101
98,135
98,147
98,150
99,103
100,148
101,104
101,105
101,106
101,107
102,108
102,156
103,110
103,111
103,112
103,113
103,114
103,115
103,116
103,117
103,118
104,148
105,120
106,109
106,119
106,136
106,145
107,121
107,212
108,109
108,121
109,151
110,186
111,172
111,181
111,209
111,210
112,173
114,146
114,185
116,124
116,183
116,210
117,135
117,149
118,122
118,149
118,169
119,123
120,122
120,125
120,126
120,127
120,128
120,129
120,130
120,131
120,132
120,133
120,134
121,170
121,206
122,151
123,137
123,138
123,139
123,140
123,141
123,142
123,143
123,144
124,211
125,223
126,172
127,145
128,136
128,172
129,136
129,149
130,149
130,173
131,136
131,145
132,171
132,183
132,186
133,149
133,174
133,210
134,249
135,136
135,146
135,156
135,182
136,148
137,177
137,179
138,170
139,150
139,179
140,147
140,169
141,147
141,148
141,149
141,150
142,148
142,150
143,147
143,148
143,149
144,183
144,190
144,223
145,151
145,169
146,186
147,151
148,152
148,153
148,154
148,155
148,157
149,156
150,182
150,187
150,214
150,240
151,158
151,159
151,160
151,161
151,162
151,163
151,164
151,165
151,166
151,167
151,168
152,208
153,202
153,206
153,207
155,169
155,189
155,206
156,183
156,208
157,168
157,175
158,170
158,177
159,173
160,173
160,174
161,170
161,211
162,174
162,181
162,206
162,207
163,172
163,186
165,174
166,171
166,175
166,181
166,209
167,175
167,177
168,176
168,190
169,170
169,204
169,207
170,223
171,223
172,211
173,175
173,176
173,177
174,221
176,179
176,180
176,184
177,178
177,181
177,182
177,183
178,185
179,186
180,186
181,189
181,190
181,214
182,189
182,190
182,223
183,188
183,189
184,185
184,186
184,187
184,202
185,191
185,192
185,193
185,194
185,195
185,196
185,197
185,203
185,213
186,198
186,199
186,200
186,201
187,223
188,221
190,202
191,241
192,204
193,250
194,248
195,207
197,212
197,214
197,222
199,205
200,209
201,206
204,223
205,207
205,210
206,208
206,209
207,223
208,211
209,213
209,248
210,212
211,214
211,215
211,216
211,217
211,218
211,219
211,220
211,222
212,221
214,223
215,240
218,248
219,249
220,241
221,224
221,225
221,226
221,227
221,228
221,229
221,230
221,231
221,232
221,233
221,234
221,235
221,236
221,237
221,238
221,239
223,242
223,243
223,244
223,245
223,246
223,247
225,250
231,249
231,250
236,249
236,250
240,248
241,248
242,249
243,250
245,250
247,249

<end>
